NAME          
ROWS
 N  OBJ
 L  knp[1]
 L  knp[2]
 L  knp[3]
 L  knp[4]
 G  cov[1]
 G  cov[2]
 G  cov[3]
 G  cov[4]
 G  cov[5]
 G  cov[6]
 G  cov[7]
 G  cov[8]
 G  cov[9]
 G  cov[10]
 G  cov[11]
 G  cov[12]
 G  cov[13]
 G  cov[14]
 G  cov[15]
 G  cov[16]
 G  cov[17]
 G  cov[18]
 G  cov[19]
 G  cov[20]
 G  cov[21]
 G  cov[22]
 G  cov[23]
 G  cov[24]
 G  cov[25]
 G  cov[26]
 G  cov[27]
 G  cov[28]
 G  cov[29]
 G  cov[30]
COLUMNS
    MARKER    'MARKER'                 'INTORG'
    x[1,1]    knp[1]    61
    x[1,1]    cov[1]    1
    x[1,1]    OBJ       12.7
    x[2,1]    knp[2]    50
    x[2,1]    cov[1]    1
    x[2,1]    OBJ       19.1
    x[3,1]    knp[3]    91
    x[3,1]    cov[1]    1
    x[3,1]    OBJ       18.6
    x[4,1]    knp[4]    62
    x[4,1]    cov[1]    1
    x[4,1]    OBJ       13.1
    x[1,2]    knp[1]    70
    x[1,2]    cov[2]    1
    x[1,2]    OBJ       22.5
    x[2,2]    knp[2]    57
    x[2,2]    cov[2]    1
    x[2,2]    OBJ       24.8
    x[3,2]    knp[3]    81
    x[3,2]    cov[2]    1
    x[3,2]    OBJ       14.1
    x[4,2]    knp[4]    79
    x[4,2]    cov[2]    1
    x[4,2]    OBJ       16.2
    x[1,3]    knp[1]    57
    x[1,3]    cov[3]    1
    x[1,3]    OBJ       8.9
    x[2,3]    knp[2]    61
    x[2,3]    cov[3]    1
    x[2,3]    OBJ       24.4
    x[3,3]    knp[3]    66
    x[3,3]    cov[3]    1
    x[3,3]    OBJ       22.7
    x[4,3]    knp[4]    73
    x[4,3]    cov[3]    1
    x[4,3]    OBJ       16.8
    x[1,4]    knp[1]    82
    x[1,4]    cov[4]    1
    x[1,4]    OBJ       20.8
    x[2,4]    knp[2]    83
    x[2,4]    cov[4]    1
    x[2,4]    OBJ       23.6
    x[3,4]    knp[3]    63
    x[3,4]    cov[4]    1
    x[3,4]    OBJ       9.9
    x[4,4]    knp[4]    60
    x[4,4]    cov[4]    1
    x[4,4]    OBJ       16.7
    x[1,5]    knp[1]    51
    x[1,5]    cov[5]    1
    x[1,5]    OBJ       13.6
    x[2,5]    knp[2]    81
    x[2,5]    cov[5]    1
    x[2,5]    OBJ       16.1
    x[3,5]    knp[3]    59
    x[3,5]    cov[5]    1
    x[3,5]    OBJ       24.2
    x[4,5]    knp[4]    75
    x[4,5]    cov[5]    1
    x[4,5]    OBJ       9
    x[1,6]    knp[1]    74
    x[1,6]    cov[6]    1
    x[1,6]    OBJ       12.4
    x[2,6]    knp[2]    79
    x[2,6]    cov[6]    1
    x[2,6]    OBJ       20.6
    x[3,6]    knp[3]    81
    x[3,6]    cov[6]    1
    x[3,6]    OBJ       24.5
    x[4,6]    knp[4]    66
    x[4,6]    cov[6]    1
    x[4,6]    OBJ       16.9
    x[1,7]    knp[1]    98
    x[1,7]    cov[7]    1
    x[1,7]    OBJ       24.8
    x[2,7]    knp[2]    63
    x[2,7]    cov[7]    1
    x[2,7]    OBJ       15
    x[3,7]    knp[3]    87
    x[3,7]    cov[7]    1
    x[3,7]    OBJ       20.8
    x[4,7]    knp[4]    68
    x[4,7]    cov[7]    1
    x[4,7]    OBJ       17.9
    x[1,8]    knp[1]    64
    x[1,8]    cov[8]    1
    x[1,8]    OBJ       19.1
    x[2,8]    knp[2]    99
    x[2,8]    cov[8]    1
    x[2,8]    OBJ       9.5
    x[3,8]    knp[3]    90
    x[3,8]    cov[8]    1
    x[3,8]    OBJ       12.9
    x[4,8]    knp[4]    99
    x[4,8]    cov[8]    1
    x[4,8]    OBJ       12.1
    x[1,9]    knp[1]    86
    x[1,9]    cov[9]    1
    x[1,9]    OBJ       11.5
    x[2,9]    knp[2]    82
    x[2,9]    cov[9]    1
    x[2,9]    OBJ       7.9
    x[3,9]    knp[3]    65
    x[3,9]    cov[9]    1
    x[3,9]    OBJ       17.7
    x[4,9]    knp[4]    69
    x[4,9]    cov[9]    1
    x[4,9]    OBJ       17.5
    x[1,10]   knp[1]    80
    x[1,10]   cov[10]   1
    x[1,10]   OBJ       17.4
    x[2,10]   knp[2]    59
    x[2,10]   cov[10]   1
    x[2,10]   OBJ       11.3
    x[3,10]   knp[3]    55
    x[3,10]   cov[10]   1
    x[3,10]   OBJ       11.9
    x[4,10]   knp[4]    60
    x[4,10]   cov[10]   1
    x[4,10]   OBJ       22
    x[1,11]   knp[1]    69
    x[1,11]   cov[11]   1
    x[1,11]   OBJ       24.7
    x[2,11]   knp[2]    83
    x[2,11]   cov[11]   1
    x[2,11]   OBJ       22.6
    x[3,11]   knp[3]    57
    x[3,11]   cov[11]   1
    x[3,11]   OBJ       18.7
    x[4,11]   knp[4]    56
    x[4,11]   cov[11]   1
    x[4,11]   OBJ       19.9
    x[1,12]   knp[1]    79
    x[1,12]   cov[12]   1
    x[1,12]   OBJ       6.8
    x[2,12]   knp[2]    91
    x[2,12]   cov[12]   1
    x[2,12]   OBJ       8
    x[3,12]   knp[3]    68
    x[3,12]   cov[12]   1
    x[3,12]   OBJ       10.1
    x[4,12]   knp[4]    100
    x[4,12]   cov[12]   1
    x[4,12]   OBJ       14.6
    x[1,13]   knp[1]    60
    x[1,13]   cov[13]   1
    x[1,13]   OBJ       21.7
    x[2,13]   knp[2]    59
    x[2,13]   cov[13]   1
    x[2,13]   OBJ       21.5
    x[3,13]   knp[3]    92
    x[3,13]   cov[13]   1
    x[3,13]   OBJ       9.1
    x[4,13]   knp[4]    67
    x[4,13]   cov[13]   1
    x[4,13]   OBJ       18.2
    x[1,14]   knp[1]    76
    x[1,14]   cov[14]   1
    x[1,14]   OBJ       14.3
    x[2,14]   knp[2]    99
    x[2,14]   cov[14]   1
    x[2,14]   OBJ       14.7
    x[3,14]   knp[3]    91
    x[3,14]   cov[14]   1
    x[3,14]   OBJ       8.9
    x[4,14]   knp[4]    68
    x[4,14]   cov[14]   1
    x[4,14]   OBJ       19.6
    x[1,15]   knp[1]    78
    x[1,15]   cov[15]   1
    x[1,15]   OBJ       10.5
    x[2,15]   knp[2]    91
    x[2,15]   cov[15]   1
    x[2,15]   OBJ       23.2
    x[3,15]   knp[3]    86
    x[3,15]   cov[15]   1
    x[3,15]   OBJ       7.7
    x[4,15]   knp[4]    54
    x[4,15]   cov[15]   1
    x[4,15]   OBJ       24.2
    x[1,16]   knp[1]    71
    x[1,16]   cov[16]   1
    x[1,16]   OBJ       15.2
    x[2,16]   knp[2]    75
    x[2,16]   cov[16]   1
    x[2,16]   OBJ       19.7
    x[3,16]   knp[3]    74
    x[3,16]   cov[16]   1
    x[3,16]   OBJ       16.6
    x[4,16]   knp[4]    66
    x[4,16]   cov[16]   1
    x[4,16]   OBJ       12.9
    x[1,17]   knp[1]    50
    x[1,17]   cov[17]   1
    x[1,17]   OBJ       14.3
    x[2,17]   knp[2]    66
    x[2,17]   cov[17]   1
    x[2,17]   OBJ       19.5
    x[3,17]   knp[3]    80
    x[3,17]   cov[17]   1
    x[3,17]   OBJ       8.3
    x[4,17]   knp[4]    50
    x[4,17]   cov[17]   1
    x[4,17]   OBJ       11.3
    x[1,18]   knp[1]    99
    x[1,18]   cov[18]   1
    x[1,18]   OBJ       12.6
    x[2,18]   knp[2]    100
    x[2,18]   cov[18]   1
    x[2,18]   OBJ       7.2
    x[3,18]   knp[3]    89
    x[3,18]   cov[18]   1
    x[3,18]   OBJ       15.9
    x[4,18]   knp[4]    56
    x[4,18]   cov[18]   1
    x[4,18]   OBJ       7.5
    x[1,19]   knp[1]    92
    x[1,19]   cov[19]   1
    x[1,19]   OBJ       9.2
    x[2,19]   knp[2]    69
    x[2,19]   cov[19]   1
    x[2,19]   OBJ       6.4
    x[3,19]   knp[3]    95
    x[3,19]   cov[19]   1
    x[3,19]   OBJ       24.3
    x[4,19]   knp[4]    70
    x[4,19]   cov[19]   1
    x[4,19]   OBJ       6.5
    x[1,20]   knp[1]    83
    x[1,20]   cov[20]   1
    x[1,20]   OBJ       20.8
    x[2,20]   knp[2]    60
    x[2,20]   cov[20]   1
    x[2,20]   OBJ       23.2
    x[3,20]   knp[3]    57
    x[3,20]   cov[20]   1
    x[3,20]   OBJ       18.6
    x[4,20]   knp[4]    56
    x[4,20]   cov[20]   1
    x[4,20]   OBJ       11.3
    x[1,21]   knp[1]    53
    x[1,21]   cov[21]   1
    x[1,21]   OBJ       11.7
    x[2,21]   knp[2]    87
    x[2,21]   cov[21]   1
    x[2,21]   OBJ       8.1
    x[3,21]   knp[3]    55
    x[3,21]   cov[21]   1
    x[3,21]   OBJ       21.1
    x[4,21]   knp[4]    72
    x[4,21]   cov[21]   1
    x[4,21]   OBJ       7.8
    x[1,22]   knp[1]    91
    x[1,22]   cov[22]   1
    x[1,22]   OBJ       17.3
    x[2,22]   knp[2]    98
    x[2,22]   cov[22]   1
    x[2,22]   OBJ       13.6
    x[3,22]   knp[3]    96
    x[3,22]   cov[22]   1
    x[3,22]   OBJ       7.5
    x[4,22]   knp[4]    62
    x[4,22]   cov[22]   1
    x[4,22]   OBJ       13.8
    x[1,23]   knp[1]    68
    x[1,23]   cov[23]   1
    x[1,23]   OBJ       9.2
    x[2,23]   knp[2]    78
    x[2,23]   cov[23]   1
    x[2,23]   OBJ       24.6
    x[3,23]   knp[3]    77
    x[3,23]   cov[23]   1
    x[3,23]   OBJ       16.8
    x[4,23]   knp[4]    85
    x[4,23]   cov[23]   1
    x[4,23]   OBJ       20.7
    x[1,24]   knp[1]    61
    x[1,24]   cov[24]   1
    x[1,24]   OBJ       20.3
    x[2,24]   knp[2]    62
    x[2,24]   cov[24]   1
    x[2,24]   OBJ       15.6
    x[3,24]   knp[3]    60
    x[3,24]   cov[24]   1
    x[3,24]   OBJ       20.9
    x[4,24]   knp[4]    70
    x[4,24]   cov[24]   1
    x[4,24]   OBJ       16.8
    x[1,25]   knp[1]    63
    x[1,25]   cov[25]   1
    x[1,25]   OBJ       11.4
    x[2,25]   knp[2]    90
    x[2,25]   cov[25]   1
    x[2,25]   OBJ       22.3
    x[3,25]   knp[3]    55
    x[3,25]   cov[25]   1
    x[3,25]   OBJ       8.9
    x[4,25]   knp[4]    100
    x[4,25]   cov[25]   1
    x[4,25]   OBJ       23.6
    x[1,26]   knp[1]    97
    x[1,26]   cov[26]   1
    x[1,26]   OBJ       6.2
    x[2,26]   knp[2]    89
    x[2,26]   cov[26]   1
    x[2,26]   OBJ       8.8
    x[3,26]   knp[3]    57
    x[3,26]   cov[26]   1
    x[3,26]   OBJ       15.2
    x[4,26]   knp[4]    57
    x[4,26]   cov[26]   1
    x[4,26]   OBJ       19.1
    x[1,27]   knp[1]    91
    x[1,27]   cov[27]   1
    x[1,27]   OBJ       13.8
    x[2,27]   knp[2]    67
    x[2,27]   cov[27]   1
    x[2,27]   OBJ       19.1
    x[3,27]   knp[3]    56
    x[3,27]   cov[27]   1
    x[3,27]   OBJ       15.7
    x[4,27]   knp[4]    96
    x[4,27]   cov[27]   1
    x[4,27]   OBJ       16.8
    x[1,28]   knp[1]    77
    x[1,28]   cov[28]   1
    x[1,28]   OBJ       10
    x[2,28]   knp[2]    87
    x[2,28]   cov[28]   1
    x[2,28]   OBJ       18.4
    x[3,28]   knp[3]    67
    x[3,28]   cov[28]   1
    x[3,28]   OBJ       12.7
    x[4,28]   knp[4]    69
    x[4,28]   cov[28]   1
    x[4,28]   OBJ       19.3
    x[1,29]   knp[1]    68
    x[1,29]   cov[29]   1
    x[1,29]   OBJ       20.9
    x[2,29]   knp[2]    65
    x[2,29]   cov[29]   1
    x[2,29]   OBJ       22.9
    x[3,29]   knp[3]    81
    x[3,29]   cov[29]   1
    x[3,29]   OBJ       20.8
    x[4,29]   knp[4]    65
    x[4,29]   cov[29]   1
    x[4,29]   OBJ       12.5
    x[1,30]   knp[1]    80
    x[1,30]   cov[30]   1
    x[1,30]   OBJ       20.6
    x[2,30]   knp[2]    100
    x[2,30]   cov[30]   1
    x[2,30]   OBJ       8
    x[3,30]   knp[3]    52
    x[3,30]   cov[30]   1
    x[3,30]   OBJ       10.4
    x[4,30]   knp[4]    50
    x[4,30]   cov[30]   1
    x[4,30]   OBJ       11
RHS
    rhs       knp[1]    1020
    rhs       knp[2]    1460
    rhs       knp[3]    1530
    rhs       knp[4]    1190
    rhs       cov[1]    1
    rhs       cov[2]    1
    rhs       cov[3]    1
    rhs       cov[4]    1
    rhs       cov[5]    1
    rhs       cov[6]    1
    rhs       cov[7]    1
    rhs       cov[8]    1
    rhs       cov[9]    1
    rhs       cov[10]   1
    rhs       cov[11]   1
    rhs       cov[12]   1
    rhs       cov[13]   1
    rhs       cov[14]   1
    rhs       cov[15]   1
    rhs       cov[16]   1
    rhs       cov[17]   1
    rhs       cov[18]   1
    rhs       cov[19]   1
    rhs       cov[20]   1
    rhs       cov[21]   1
    rhs       cov[22]   1
    rhs       cov[23]   1
    rhs       cov[24]   1
    rhs       cov[25]   1
    rhs       cov[26]   1
    rhs       cov[27]   1
    rhs       cov[28]   1
    rhs       cov[29]   1
    rhs       cov[30]   1
RANGES
BOUNDS
 BV bounds    x[1,1]
 BV bounds    x[2,1]
 BV bounds    x[3,1]
 BV bounds    x[4,1]
 BV bounds    x[1,2]
 BV bounds    x[2,2]
 BV bounds    x[3,2]
 BV bounds    x[4,2]
 BV bounds    x[1,3]
 BV bounds    x[2,3]
 BV bounds    x[3,3]
 BV bounds    x[4,3]
 BV bounds    x[1,4]
 BV bounds    x[2,4]
 BV bounds    x[3,4]
 BV bounds    x[4,4]
 BV bounds    x[1,5]
 BV bounds    x[2,5]
 BV bounds    x[3,5]
 BV bounds    x[4,5]
 BV bounds    x[1,6]
 BV bounds    x[2,6]
 BV bounds    x[3,6]
 BV bounds    x[4,6]
 BV bounds    x[1,7]
 BV bounds    x[2,7]
 BV bounds    x[3,7]
 BV bounds    x[4,7]
 BV bounds    x[1,8]
 BV bounds    x[2,8]
 BV bounds    x[3,8]
 BV bounds    x[4,8]
 BV bounds    x[1,9]
 BV bounds    x[2,9]
 BV bounds    x[3,9]
 BV bounds    x[4,9]
 BV bounds    x[1,10]
 BV bounds    x[2,10]
 BV bounds    x[3,10]
 BV bounds    x[4,10]
 BV bounds    x[1,11]
 BV bounds    x[2,11]
 BV bounds    x[3,11]
 BV bounds    x[4,11]
 BV bounds    x[1,12]
 BV bounds    x[2,12]
 BV bounds    x[3,12]
 BV bounds    x[4,12]
 BV bounds    x[1,13]
 BV bounds    x[2,13]
 BV bounds    x[3,13]
 BV bounds    x[4,13]
 BV bounds    x[1,14]
 BV bounds    x[2,14]
 BV bounds    x[3,14]
 BV bounds    x[4,14]
 BV bounds    x[1,15]
 BV bounds    x[2,15]
 BV bounds    x[3,15]
 BV bounds    x[4,15]
 BV bounds    x[1,16]
 BV bounds    x[2,16]
 BV bounds    x[3,16]
 BV bounds    x[4,16]
 BV bounds    x[1,17]
 BV bounds    x[2,17]
 BV bounds    x[3,17]
 BV bounds    x[4,17]
 BV bounds    x[1,18]
 BV bounds    x[2,18]
 BV bounds    x[3,18]
 BV bounds    x[4,18]
 BV bounds    x[1,19]
 BV bounds    x[2,19]
 BV bounds    x[3,19]
 BV bounds    x[4,19]
 BV bounds    x[1,20]
 BV bounds    x[2,20]
 BV bounds    x[3,20]
 BV bounds    x[4,20]
 BV bounds    x[1,21]
 BV bounds    x[2,21]
 BV bounds    x[3,21]
 BV bounds    x[4,21]
 BV bounds    x[1,22]
 BV bounds    x[2,22]
 BV bounds    x[3,22]
 BV bounds    x[4,22]
 BV bounds    x[1,23]
 BV bounds    x[2,23]
 BV bounds    x[3,23]
 BV bounds    x[4,23]
 BV bounds    x[1,24]
 BV bounds    x[2,24]
 BV bounds    x[3,24]
 BV bounds    x[4,24]
 BV bounds    x[1,25]
 BV bounds    x[2,25]
 BV bounds    x[3,25]
 BV bounds    x[4,25]
 BV bounds    x[1,26]
 BV bounds    x[2,26]
 BV bounds    x[3,26]
 BV bounds    x[4,26]
 BV bounds    x[1,27]
 BV bounds    x[2,27]
 BV bounds    x[3,27]
 BV bounds    x[4,27]
 BV bounds    x[1,28]
 BV bounds    x[2,28]
 BV bounds    x[3,28]
 BV bounds    x[4,28]
 BV bounds    x[1,29]
 BV bounds    x[2,29]
 BV bounds    x[3,29]
 BV bounds    x[4,29]
 BV bounds    x[1,30]
 BV bounds    x[2,30]
 BV bounds    x[3,30]
 BV bounds    x[4,30]
ENDATA
